sat
(
  (define-fun ProcProv9 () Int
    4)
  (define-fun VM9Type () Int
    316)
  (define-fun PriceProv6 () Int
    350)
  (define-fun PriceProv8 () Int
    350)
  (define-fun PriceProv1 () Int
    420)
  (define-fun StorageProv5 () Int
    2000)
  (define-fun MemProv10 () Int
    15000)
  (define-fun C1_VM2 () Int
    1)
  (define-fun C3_VM5 () Int
    0)
  (define-fun C2_VM9 () Int
    1)
  (define-fun C3_VM8 () Int
    0)
  (define-fun StorageProv9 () Int
    4000)
  (define-fun PriceProv10 () Int
    420)
  (define-fun C5_VM2 () Int
    0)
  (define-fun VM10Type () Int
    278)
  (define-fun C4_VM5 () Int
    1)
  (define-fun MemProv2 () Int
    15000)
  (define-fun VM2Type () Int
    316)
  (define-fun C4_VM4 () Int
    1)
  (define-fun ProcProv4 () Int
    8)
  (define-fun C5_VM6 () Int
    0)
  (define-fun C1_VM4 () Int
    0)
  (define-fun C2_VM1 () Int
    0)
  (define-fun StorageProv10 () Int
    2000)
  (define-fun C5_VM3 () Int
    0)
  (define-fun C1_VM9 () Int
    1)
  (define-fun MemProv7 () Int
    15000)
  (define-fun C5_VM4 () Int
    0)
  (define-fun ProcProv6 () Int
    4)
  (define-fun VM8Type () Int
    316)
  (define-fun MemProv6 () Int
    15000)
  (define-fun C1_VM3 () Int
    0)
  (define-fun C4_VM10 () Int
    0)
  (define-fun C4_VM7 () Int
    0)
  (define-fun C1_VM1 () Int
    1)
  (define-fun C3_VM7 () Int
    0)
  (define-fun ProcProv5 () Int
    4)
  (define-fun PriceProv5 () Int
    210)
  (define-fun VM7Type () Int
    316)
  (define-fun MemProv5 () Int
    7500)
  (define-fun C5_VM9 () Int
    0)
  (define-fun C1_VM7 () Int
    1)
  (define-fun C2_VM7 () Int
    1)
  (define-fun C4_VM3 () Int
    1)
  (define-fun VM4Type () Int
    278)
  (define-fun ProcProv8 () Int
    4)
  (define-fun C2_VM2 () Int
    1)
  (define-fun C3_VM3 () Int
    0)
  (define-fun ProcProv2 () Int
    4)
  (define-fun PriceProv9 () Int
    350)
  (define-fun C5_VM1 () Int
    1)
  (define-fun C5_VM8 () Int
    0)
  (define-fun VM6Type () Int
    316)
  (define-fun MemProv9 () Int
    15000)
  (define-fun MemProv1 () Int
    15000)
  (define-fun StorageProv2 () Int
    4000)
  (define-fun C3_VM4 () Int
    1)
  (define-fun ProcProv1 () Int
    8)
  (define-fun ProcProv10 () Int
    8)
  (define-fun PriceProv2 () Int
    350)
  (define-fun C5_VM10 () Int
    1)
  (define-fun VM5Type () Int
    341)
  (define-fun C2_VM3 () Int
    0)
  (define-fun C4_VM8 () Int
    0)
  (define-fun PriceProv4 () Int
    420)
  (define-fun C5_VM5 () Int
    0)
  (define-fun C3_VM9 () Int
    0)
  (define-fun C5_VM7 () Int
    0)
  (define-fun C3_VM6 () Int
    0)
  (define-fun C4_VM1 () Int
    0)
  (define-fun C2_VM8 () Int
    1)
  (define-fun MemProv8 () Int
    15000)
  (define-fun C2_VM4 () Int
    0)
  (define-fun C4_VM6 () Int
    0)
  (define-fun StorageProv7 () Int
    4000)
  (define-fun C2_VM5 () Int
    0)
  (define-fun C3_VM1 () Int
    0)
  (define-fun StorageProv1 () Int
    2000)
  (define-fun ProcProv7 () Int
    4)
  (define-fun C3_VM10 () Int
    0)
  (define-fun StorageProv3 () Int
    2000)
  (define-fun MemProv4 () Int
    15000)
  (define-fun C4_VM2 () Int
    0)
  (define-fun C3_VM2 () Int
    0)
  (define-fun C2_VM6 () Int
    1)
  (define-fun C2_VM10 () Int
    0)
  (define-fun VM1Type () Int
    278)
  (define-fun C1_VM6 () Int
    1)
  (define-fun ProcProv3 () Int
    4)
  (define-fun C4_VM9 () Int
    0)
  (define-fun PriceProv7 () Int
    350)
  (define-fun MemProv3 () Int
    7500)
  (define-fun C1_VM5 () Int
    0)
  (define-fun VM3Type () Int
    341)
  (define-fun C1_VM8 () Int
    1)
  (define-fun StorageProv8 () Int
    4000)
  (define-fun C1_VM10 () Int
    1)
  (define-fun PriceProv3 () Int
    210)
  (define-fun StorageProv6 () Int
    4000)
  (define-fun StorageProv4 () Int
    2000)
)
(objectives
 ( 4952)
 ((+ 0
   PriceProv1
   PriceProv2
   PriceProv3
   PriceProv4
   PriceProv5
   PriceProv6
   PriceProv7
   PriceProv8
   PriceProv9
   PriceProv10) 3430)
)
(:added-eqs                   29273869
 :arith-eq-adapter            141518345
 :arith-bound-propagations-lp 3373718
 :arith-conflicts             605
 :arith-diseq                 179864755
 :arith-fixed-eqs             407175
 :arith-lower                 210969568
 :arith-make-feasible         16558250
 :arith-max-columns           615
 :arith-max-rows              32
 :arith-upper                 160597196
 :binary-propagations         447995792
 :bv-bit2core                 2907696
 :bv-dynamic-diseqs           201994583
 :bv-dynamic-eqs              1
 :bv->core-eq                 2532
 :conflicts                   215735
 :decisions                   95826275
 :del-clause                  276222758
 :final-checks                9891
 :max-memory                  765.22
 :maxsat-cores                4888
 :memory                      729.86
 :minimized-lits              3318835
 :mk-bool-var                 127783495
 :mk-clause                   276228495
 :mk-clause-binary            40720
 :num-allocs                  716227834922550.00
 :num-checks                  17333
 :pb-conflicts                5062
 :pb-predicates               7
 :pb-propagations             433024
 :pb-resolves                 485
 :propagations                894691195
 :restarts                    625
 :rlimit-count                2085575638
 :time                        3809.16
 :total-time                  1215.22)
